100
150
100
100
100
99
98
98
95
92
91
91
89
89
89
89
88
88
87
86
86
85
85
84
84
83
82
82
81
81
81
80
79
79
79
78
78
78
77
76
75
75
74
74
73
72
72
70
69
68
68
67
66
65
64
63
62
62
62
60
59
58
56
56
55
53
53
53
51
51
50
50
46
44
44
44
44
43
42
42
41
41
40
39
39
38
37
37
36
36
36
36
35
35
35
34
33
33
33
32
32
30
